1 -1 2 0
1 1 -3 0
1 1 -4 0
1 -1 -5 0
1 -2 -4 0
1 2 -1 0
1 -2 6 0
1 2 7 0
1 8 9 0
1 -8 -3 0
1 -8 -4 0
1 -8 -10 0
1 -8 11 0
1 -8 6 0
1 -12 -13 0
1 -12 -9 0
1 12 -14 0
1 -12 3 0
1 -12 -4 0
1 -12 6 0
1 12 -7 0
1 4 -15 0
1 -4 -16 0
1 4 17 0
1 4 -2 0
1 -4 -18 0
1 4 -19 0
1 4 -20 0
1 -4 -7 0
1 7 21 0
1 7 16 0
1 -7 17 0
1 7 12 0
1 -7 -2 0
1 7 -4 0
1 7 -22 0
1 7 20 0
1 7 -1 0
1 3 -15 0
1 3 -23 0
1 3 24 0
1 3 12 0
1 3 -25 0
1 -3 1 0
1 3 -6 0
1 6 -15 0
1 -6 24 0
1 6 12 0
1 6 -3 0
1 6 19 0
1 -6 -26 0
1 6 -1 0
1 20 -9 0
1 20 -17 0
1 20 -27 0
1 -20 10 0
1 -20 28 0
1 -20 -7 0
1 -17 -13 0
1 -17 -24 0
1 -17 -4 0
1 -17 27 0
1 17 10 0
1 -17 20 0
1 22 13 0
1 22 9 0
1 -22 -16 0
1 22 29 0
1 -22 -27 0
1 22 10 0
1 -22 -30 0
1 22 -31 0
1 -16 -13 0
1 16 9 0
1 16 -32 0
1 -16 29 0
1 16 -30 0
1 16 31 0
1 -16 7 0
1 -10 -33 0
1 -10 -34 0
1 -10 -9 0
1 10 16 0
1 10 -12 0
1 10 35 0
1 -10 -36 0
1 -10 37 0
1 10 22 0
1 10 -20 0
1 -10 -8 0
1 10 -38 0
1 9 -33 0
1 -9 34 0
1 9 -39 0
1 9 16 0
1 9 -17 0
1 9 -12 0
1 -9 36 0
1 -9 -40 0
1 -9 8 0
1 9 38 0
1 27 -13 0
1 27 -41 0
1 27 -15 0
1 -27 42 0
1 27 19 0
1 27 -22 0
1 -27 -20 0
1 -27 -8 0
1 -27 -38 0
1 13 41 0
1 13 43 0
1 -13 -12 0
1 13 -35 0
1 -13 27 0
1 13 44 0
1 -13 19 0
1 13 22 0
1 -13 20 0
1 13 8 0
1 40 -32 0
1 40 10 0
1 40 -19 0
1 40 30 0
1 40 31 0
1 34 32 0
1 34 29 0
1 -34 -10 0
1 -34 30 0
1 -34 -31 0
1 36 -33 0
1 -36 9 0
1 -36 -32 0
1 -36 29 0
1 -36 44 0
1 36 -10 0
1 36 30 0
1 36 31 0
1 -33 41 0
1 33 -9 0
1 33 -32 0
1 -33 -29 0
1 -33 -10 0
1 -33 -30 0
1 -33 31 0
1 31 16 0
1 -31 -29 0
1 -31 45 0
1 -31 -40 0
1 31 -22 0
1 31 46 0
1 -31 -47 0
1 29 33 0
1 -29 48 0
1 29 -45 0
1 29 -36 0
1 -29 40 0
1 -29 22 0
1 -29 31 0
1 29 -47 0
1 -30 -32 0
1 30 -35 0
1 30 -36 0
1 -30 -40 0
1 -30 -22 0
1 -30 -49 0
1 -30 38 0
1 32 -33 0
1 -32 34 0
1 -32 -16 0
1 32 50 0
1 -32 45 0
1 32 35 0
1 -32 30 0
1 32 47 0
1 -32 -51 0
1 5 -52 0
1 -5 -53 0
1 5 -54 0
1 5 55 0
1 -5 -56 0
1 -54 -52 0
1 -54 53 0
1 -54 -2 0
1 -54 55 0
1 -54 57 0
1 54 5 0
1 -11 -53 0
1 11 58 0
1 11 -14 0
1 11 -57 0
1 11 59 0
1 -11 -60 0
1 11 -8 0
1 -11 -61 0
1 -14 52 0
1 -14 53 0
1 -14 62 0
1 14 -12 0
1 14 -63 0
1 14 57 0
1 -14 -60 0
1 14 -11 0
1 -53 -23 0
1 53 64 0
1 -53 -24 0
1 53 14 0
1 -53 54 0
1 -53 57 0
1 -53 65 0
1 -53 -26 0
1 53 11 0
1 -57 53 0
1 57 -14 0
1 57 54 0
1 57 -66 0
1 57 26 0
1 -57 -5 0
1 52 67 0
1 -52 68 0
1 -52 -69 0
1 -52 -70 0
1 -52 -14 0
1 52 54 0
1 -52 -71 0
1 -52 -11 0
1 52 5 0
1 -55 52 0
1 -55 -69 0
1 -55 -70 0
1 -55 14 0
1 -55 -72 0
1 -55 65 0
1 -55 73 0
1 -55 11 0
1 -55 5 0
1 -28 -58 0
1 -28 -24 0
1 28 62 0
1 28 -57 0
1 -28 -60 0
1 -24 62 0
1 -24 -70 0
1 24 57 0
1 -24 59 0
1 -24 60 0
1 26 23 0
1 -26 -58 0
1 -26 62 0
1 -26 74 0
1 26 -75 0
1 -26 -3 0
1 26 57 0
1 -26 59 0
1 -26 22 0
1 26 -60 0
1 26 73 0
1 26 76 0
1 -26 -77 0
1 26 -6 0
1 23 60 0
1 -23 -53 0
1 23 -16 0
1 23 -58 0
1 -23 -69 0
1 23 -62 0
1 -23 75 0
1 -23 3 0
1 23 -57 0
1 23 26 0
1 23 76 0
1 -23 77 0
1 23 -6 0
1 -62 -78 0
1 -62 15 0
1 -62 -23 0
1 62 79 0
1 -62 80 0
1 62 44 0
1 -62 19 0
1 -62 -28 0
1 -60 -41 0
1 -60 -15 0
1 -60 -24 0
1 60 62 0
1 60 14 0
1 -60 -80 0
1 60 -44 0
1 -60 -19 0
1 -60 -26 0
1 60 -28 0
1 58 -78 0
1 -58 81 0
1 58 -23 0
1 -58 -82 0
1 -58 24 0
1 58 80 0
1 58 83 0
1 -58 59 0
1 -58 65 0
1 -58 -28 0
1 58 11 0
1 59 78 0
1 59 -81 0
1 -59 -68 0
1 -59 -23 0
1 59 -24 0
1 59 14 0
1 -59 -80 0
1 59 26 0
1 -59 -84 0
1 -59 28 0
1 -19 -15 0
1 -19 62 0
1 -19 4 0
1 -19 -40 0
1 19 65 0
1 -19 60 0
1 19 -76 0
1 19 77 0
1 -19 -6 0
1 19 7 0
1 15 13 0
1 -15 68 0
1 15 62 0
1 15 -75 0
1 15 3 0
1 15 4 0
1 15 -27 0
1 15 -76 0
1 15 -6 0
1 15 -7 0
1 44 21 0
1 -44 13 0
1 44 41 0
1 -44 -74 0
1 -44 -75 0
1 -44 -25 0
1 -44 -36 0
1 44 -60 0
1 44 76 0
1 -44 77 0
1 -44 85 0
1 -41 -21 0
1 -41 -33 0
1 -41 62 0
1 41 -74 0
1 41 75 0
1 41 -25 0
1 -41 -18 0
1 41 44 0
1 41 76 0
1 41 -85 0
1 -75 41 0
1 -75 -86 0
1 75 -87 0
1 -75 35 0
1 -75 44 0
1 77 75 0
1 77 -86 0
1 -77 88 0
1 -77 -35 0
1 77 -89 0
1 -77 44 0
1 -77 26 0
1 77 -90 0
1 77 -51 0
1 77 -38 0
1 -74 78 0
1 74 -41 0
1 74 -15 0
1 74 91 0
1 -74 92 0
1 -74 80 0
1 -74 -44 0
1 74 -19 0
1 -74 -76 0
1 74 -90 0
1 -76 78 0
1 76 -15 0
1 76 -23 0
1 76 -74 0
1 76 -80 0
1 76 -44 0
1 76 19 0
1 -76 -93 0
1 -35 -21 0
1 -35 -32 0
1 35 75 0
1 -35 -25 0
1 -35 80 0
1 35 -27 0
1 35 -10 0
1 35 30 0
1 -35 -77 0
1 -35 85 0
1 -38 -78 0
1 -38 13 0
1 38 21 0
1 38 -32 0
1 38 -75 0
1 -38 25 0
1 -38 27 0
1 -38 77 0
1 88 39 0
1 -88 32 0
1 -88 -92 0
1 -88 42 0
1 -88 -30 0
1 88 77 0
1 -88 -51 0
1 -88 -85 0
1 51 -21 0
1 51 43 0
1 51 39 0
1 51 -32 0
1 51 75 0
1 51 88 0
1 51 -25 0
1 51 37 0
1 51 -30 0
1 51 85 0
1 -51 77 0
1 51 94 0
1 -18 41 0
1 18 45 0
1 18 -35 0
1 18 44 0
1 -18 -95 0
1 18 -96 0
1 18 47 0
1 18 38 0
1 21 97 0
1 21 41 0
1 21 -98 0
1 21 -99 0
1 -21 45 0
1 -21 -88 0
1 21 35 0
1 -21 18 0
1 21 -7 0
1 21 -95 0
1 21 47 0
1 21 -51 0
1 21 38 0
1 -25 -100 0
1 -25 -3 0
1 25 35 0
1 25 -101 0
1 25 44 0
1 25 -102 0
1 -25 -51 0
1 -25 85 0
1 -25 38 0
1 -85 41 0
1 -85 25 0
1 -85 -35 0
1 85 -95 0
1 85 102 0
1 -85 -90 0
1 -85 51 0
1 -85 -103 0
1 -85 38 0
1 45 -21 0
1 -45 43 0
1 -45 -32 0
1 45 86 0
1 45 -42 0
1 -45 31 0
1 -47 21 0
1 -47 -43 0
1 47 -39 0
1 47 -32 0
1 -47 -29 0
1 47 45 0
1 -47 18 0
1 -47 -37 0
1 47 30 0
1 47 -90 0
1 -99 21 0
1 99 43 0
1 99 -39 0
1 99 48 0
1 -99 100 0
1 99 -18 0
1 -99 42 0
1 96 -21 0
1 96 43 0
1 -96 -39 0
1 -96 -50 0
1 -96 99 0
1 96 -18 0
1 -96 -37 0
1 -37 -104 0
1 37 39 0
1 -37 -105 0
1 -37 106 0
1 -37 99 0
1 -37 45 0
1 37 107 0
1 -37 -108 0
1 37 -96 0
1 37 47 0
1 -37 -51 0
1 -39 9 0
1 -39 -109 0
1 39 -105 0
1 -39 99 0
1 -39 45 0
1 -39 -88 0
1 39 107 0
1 -39 110 0
1 39 37 0
1 -39 108 0
1 39 -96 0
1 39 -47 0
1 -42 43 0
1 -42 -111 0
1 42 98 0
1 -42 -45 0
1 42 107 0
1 42 -112 0
1 -42 95 0
1 -42 -96 0
1 -42 51 0
1 -43 -113 0
1 43 111 0
1 43 98 0
1 -43 -88 0
1 43 -107 0
1 43 -42 0
1 43 -114 0
1 43 96 0
1 43 -51 0
1 106 39 0
1 -106 -48 0
1 106 -98 0
1 106 49 0
1 -106 -37 0
1 106 108 0
1 108 39 0
1 108 50 0
1 -108 -106 0
1 -108 -37 0
1 -108 -49 0
1 -108 -95 0
1 -105 -39 0
1 -105 -50 0
1 105 111 0
1 -105 48 0
1 -105 -110 0
1 105 37 0
1 105 -49 0
1 -110 39 0
1 -110 105 0
1 110 -48 0
1 110 -114 0
1 -110 -49 0
1 -46 115 0
1 46 -105 0
1 46 -106 0
1 -46 -99 0
1 46 116 0
1 -46 110 0
1 -46 -31 0
1 46 -96 0
1 -46 -117 0
1 48 115 0
1 -48 105 0
1 -48 -29 0
1 -48 -106 0
1 -48 -118 0
1 48 99 0
1 48 -116 0
1 -48 -108 0
1 -48 -96 0
1 48 -46 0
1 49 119 0
1 49 -104 0
1 49 106 0
1 -49 116 0
1 49 107 0
1 -49 -110 0
1 49 -30 0
1 -49 108 0
1 49 120 0
1 49 -96 0
1 -50 -115 0
1 50 32 0
1 50 -105 0
1 50 -121 0
1 50 106 0
1 50 99 0
1 50 -116 0
1 -50 -122 0
1 50 49 0
1 -50 -107 0
1 50 108 0
1 -56 -123 0
1 56 124 0
1 -56 -125 0
1 56 -5 0
1 123 126 0
1 123 -127 0
1 123 -54 0
1 123 125 0
1 123 -56 0
1 61 127 0
1 -61 128 0
1 61 129 0
1 61 -125 0
1 -61 -130 0
1 -61 131 0
1 -63 126 0
1 -63 -128 0
1 -63 129 0
1 63 124 0
1 -63 -131 0
1 63 125 0
1 -63 130 0
1 -125 69 0
1 -125 127 0
1 125 -70 0
1 -125 63 0
1 -125 123 0
1 -125 -132 0
1 -125 71 0
1 -125 -61 0
1 -125 -56 0
1 -127 125 0
1 -127 -69 0
1 -127 70 0
1 -127 63 0
1 -127 -123 0
1 127 73 0
1 127 71 0
1 127 -61 0
1 124 -133 0
1 -124 -126 0
1 -124 63 0
1 -124 123 0
1 124 61 0
1 -124 56 0
1 126 -63 0
1 -126 -123 0
1 126 -124 0
1 -126 56 0
1 -71 127 0
1 71 -70 0
1 71 -128 0
1 71 129 0
1 71 -125 0
1 71 28 0
1 71 -131 0
1 -70 -52 0
1 -70 -127 0
1 -70 128 0
1 -70 -129 0
1 -70 130 0
1 70 55 0
1 -70 -125 0
1 -70 -131 0
1 73 -127 0
1 -73 -129 0
1 73 -55 0
1 -73 -125 0
1 -73 -130 0
1 -73 -131 0
1 73 -134 0
1 69 52 0
1 -69 -125 0
1 69 -23 0
1 -69 -127 0
1 69 128 0
1 69 -135 0
1 -69 55 0
1 -69 130 0
1 69 131 0
1 -131 136 0
1 -131 69 0
1 131 -63 0
1 -131 129 0
1 131 65 0
1 131 -61 0
1 131 -137 0
1 129 81 0
1 129 68 0
1 -129 69 0
1 129 -70 0
1 -129 -138 0
1 -129 -71 0
1 -129 -61 0
1 -130 136 0
1 130 69 0
1 130 -128 0
1 130 63 0
1 130 73 0
1 130 -71 0
1 130 61 0
1 128 69 0
1 128 -63 0
1 128 -130 0
1 -128 138 0
1 -128 73 0
1 128 61 0
1 65 52 0
1 -65 53 0
1 65 -68 0
1 65 -58 0
1 65 -129 0
1 -65 139 0
1 65 55 0
1 65 59 0
1 65 19 0
1 68 -15 0
1 68 53 0
1 68 129 0
1 -68 -139 0
1 68 57 0
1 68 59 0
1 68 -65 0
1 -68 131 0
1 83 140 0
1 83 81 0
1 -83 -67 0
1 83 -64 0
1 -83 139 0
1 83 -72 0
1 -83 59 0
1 81 140 0
1 -81 41 0
1 -81 -67 0
1 -81 64 0
1 -81 -58 0
1 81 129 0
1 81 135 0
1 81 -72 0
1 -81 83 0
1 81 59 0
1 -81 -66 0
1 140 -78 0
1 140 -141 0
1 140 81 0
1 -140 68 0
1 -140 69 0
1 -140 -142 0
1 -140 -80 0
1 -140 83 0
1 -140 65 0
1 140 143 0
1 135 -140 0
1 135 68 0
1 -135 -92 0
1 135 144 0
1 135 83 0
1 -134 136 0
1 -134 -81 0
1 134 145 0
1 134 -69 0
1 134 -139 0
1 134 142 0
1 -134 -146 0
1 134 -83 0
1 -134 65 0
1 -134 -73 0
1 134 143 0
1 134 147 0
1 -139 -68 0
1 -139 69 0
1 -139 -142 0
1 139 -148 0
1 -139 146 0
1 -139 -73 0
1 -139 134 0
1 139 147 0
1 80 -140 0
1 -80 -64 0
1 80 58 0
1 -80 -62 0
1 80 135 0
1 -80 -35 0
1 80 -138 0
1 -80 -66 0
1 80 59 0
1 80 -60 0
1 80 -76 0
1 -78 140 0
1 -78 -136 0
1 -78 -67 0
1 78 58 0
1 78 -135 0
1 -78 72 0
1 -78 66 0
1 -78 -59 0
1 78 -38 0
1 92 -67 0
1 92 -64 0
1 92 -82 0
1 -92 -74 0
1 92 88 0
1 92 -135 0
1 -92 72 0
1 92 66 0
1 92 -149 0
1 -92 -76 0
1 92 94 0
1 94 -67 0
1 -94 -64 0
1 -94 82 0
1 -94 -74 0
1 94 92 0
1 94 135 0
1 -94 72 0
1 -94 -66 0
1 94 -147 0
1 64 -81 0
1 64 150 0
1 -64 92 0
1 -64 80 0
1 -64 83 0
1 -64 102 0
1 -64 -90 0
1 -66 78 0
1 -66 81 0
1 66 64 0
1 -66 100 0
1 66 -86 0
1 66 -80 0
1 66 151 0
1 66 -152 0
1 66 -102 0
1 -66 -90 0
1 -66 -94 0
1 67 78 0
1 -67 81 0
1 67 -92 0
1 67 80 0
1 -67 72 0
1 -67 83 0
1 67 152 0
1 67 -153 0
1 67 -143 0
1 67 94 0
1 -72 -78 0
1 -72 67 0
1 -72 -92 0
1 72 80 0
1 72 55 0
1 -72 154 0
1 -72 152 0
1 72 143 0
1 -72 -94 0
1 -86 -64 0
1 86 82 0
1 86 79 0
1 86 -74 0
1 -86 45 0
1 -86 -75 0
1 -86 -142 0
1 -86 -66 0
1 -86 149 0
1 86 -76 0
1 -86 77 0
1 -86 -85 0
1 -90 82 0
1 -90 -79 0
1 -90 -74 0
1 90 -75 0
1 -90 86 0
1 90 25 0
1 -90 -66 0
1 90 -84 0
1 90 -149 0
1 90 -76 0
1 -90 47 0
1 -90 -85 0
1 100 64 0
1 -100 -82 0
1 100 99 0
1 -100 91 0
1 -100 155 0
1 100 -87 0
1 -100 -25 0
1 100 -84 0
1 100 149 0
1 -100 -89 0
1 -100 85 0
1 102 -82 0
1 -102 79 0
1 -102 -100 0
1 -102 -87 0
1 -102 25 0
1 -102 66 0
1 102 -84 0
1 102 -96 0
1 -102 89 0
1 -102 -85 0
1 -79 -149 0
1 -79 -156 0
1 79 62 0
1 -79 157 0
1 -79 -100 0
1 -79 -86 0
1 79 158 0
1 -79 -114 0
1 79 -102 0
1 79 -90 0
1 79 94 0
1 -149 111 0
1 149 98 0
1 149 79 0
1 149 -100 0
1 -149 158 0
1 149 114 0
1 149 -159 0
1 149 94 0
1 82 -160 0
1 -82 -161 0
1 82 100 0
1 -82 -86 0
1 82 -92 0
1 -82 -158 0
1 82 84 0
1 82 -152 0
1 -82 -102 0
1 82 -90 0
1 82 94 0
1 84 -162 0
1 84 150 0
1 -84 -100 0
1 84 -86 0
1 84 92 0
1 -84 59 0
1 84 90 0
1 84 94 0
1 98 21 0
1 98 106 0
1 -98 -79 0
1 98 150 0
1 98 91 0
1 98 -87 0
1 98 -25 0
1 98 -18 0
1 98 -95 0
1 98 -89 0
1 -98 85 0
1 95 -21 0
1 95 -43 0
1 -95 98 0
1 -95 -91 0
1 95 -87 0
1 95 18 0
1 -95 -108 0
1 95 149 0
1 95 -152 0
1 -95 93 0
1 -95 -89 0
1 -95 -85 0
1 111 -97 0
1 111 43 0
1 -111 105 0
1 -111 -160 0
1 -111 79 0
1 -111 91 0
1 -111 -87 0
1 -111 101 0
1 111 163 0
1 -111 42 0
1 111 149 0
1 -111 93 0
1 -111 -89 0
1 111 103 0
1 -114 43 0
1 -114 111 0
1 -114 79 0
1 -114 -91 0
1 114 87 0
1 -114 -101 0
1 114 -163 0
1 -114 42 0
1 114 110 0
1 -114 -164 0
1 114 -93 0
1 -114 89 0
1 87 104 0
1 -87 111 0
1 87 -98 0
1 -87 100 0
1 -87 75 0
1 87 -114 0
1 -87 -95 0
1 87 -89 0
1 -89 119 0
1 89 -111 0
1 -89 -98 0
1 89 100 0
1 -89 87 0
1 -89 -122 0
1 -89 -114 0
1 -89 102 0
1 89 -77 0
1 89 -165 0
1 91 166 0
1 -91 167 0
1 -91 -156 0
1 -91 -93 0
1 -91 74 0
1 91 100 0
1 -91 168 0
1 91 169 0
1 -91 170 0
1 -91 -158 0
1 -91 -95 0
1 93 -166 0
1 -93 167 0
1 -93 156 0
1 93 -98 0
1 93 -100 0
1 93 91 0
1 93 -170 0
1 -93 -158 0
1 -93 114 0
1 -93 76 0
1 93 102 0
1 104 -97 0
1 104 43 0
1 -104 -39 0
1 104 50 0
1 -104 87 0
1 -104 101 0
1 -104 -163 0
1 104 42 0
1 -104 -49 0
1 -104 -89 0
1 107 43 0
1 107 -39 0
1 -107 -50 0
1 107 -87 0
1 -107 42 0
1 107 37 0
1 107 -89 0
1 107 -103 0
1 -119 109 0
1 -119 50 0
1 -119 87 0
1 119 -101 0
1 119 -163 0
1 119 112 0
1 119 171 0
1 -119 49 0
1 119 89 0
1 -122 113 0
1 122 -101 0
1 122 163 0
1 -122 103 0
1 163 -97 0
1 163 111 0
1 163 172 0
1 163 122 0
1 163 -18 0
1 -163 -114 0
1 -163 -173 0
1 -163 -174 0
1 -97 115 0
1 97 21 0
1 97 -119 0
1 97 104 0
1 97 172 0
1 97 116 0
1 -97 -122 0
1 97 -107 0
1 97 -173 0
1 97 -174 0
1 101 -166 0
1 101 -119 0
1 101 -104 0
1 101 -172 0
1 -101 175 0
1 101 -169 0
1 101 -122 0
1 -101 -107 0
1 101 -114 0
1 -101 -173 0
1 -101 103 0
1 101 176 0
1 103 -119 0
1 103 104 0
1 -103 -111 0
1 103 122 0
1 103 101 0
1 -103 -114 0
1 103 173 0
1 -103 85 0
1 103 -176 0
1 -115 97 0
1 115 113 0
1 115 50 0
1 115 -48 0
1 115 -116 0
1 115 163 0
1 -115 -112 0
1 115 -171 0
1 115 -49 0
1 -115 -46 0
1 116 115 0
1 -116 97 0
1 116 -113 0
1 116 -50 0
1 -116 48 0
1 116 169 0
1 -116 -112 0
1 -116 171 0
1 116 -46 0
1 -174 -97 0
1 -174 -113 0
1 174 109 0
1 -174 121 0
1 -174 -118 0
1 174 -177 0
1 174 -163 0
1 174 171 0
1 174 -120 0
1 -174 117 0
1 174 176 0
1 -177 97 0
1 177 -113 0
1 177 -121 0
1 -177 -118 0
1 177 175 0
1 -177 112 0
1 177 -171 0
1 -177 174 0
1 -171 -119 0
1 -171 -109 0
1 171 -178 0
1 171 179 0
1 171 177 0
1 171 122 0
1 -171 174 0
1 -109 115 0
1 109 179 0
1 109 -177 0
1 -109 116 0
1 109 -122 0
1 109 -180 0
1 112 115 0
1 -112 119 0
1 112 113 0
1 -112 181 0
1 -112 172 0
1 -112 116 0
1 112 -182 0
1 -112 174 0
1 -113 115 0
1 113 -119 0
1 113 43 0
1 113 -181 0
1 -113 -177 0
1 113 -122 0
1 113 112 0
1 -113 -182 0
1 113 -173 0
1 -183 109 0
1 -183 121 0
1 -183 118 0
1 183 -171 0
1 -183 -120 0
1 183 117 0
1 179 -118 0
1 179 171 0
1 179 183 0
1 -180 121 0
1 180 -178 0
1 -180 118 0
1 180 171 0
1 -180 -120 0
1 180 -117 0
1 -180 -182 0
1 178 117 0
1 -178 -121 0
1 -178 118 0
1 -178 171 0
1 178 180 0
1 117 178 0
1 117 -118 0
1 -117 177 0
1 117 46 0
1 -117 -180 0
1 -117 -183 0
1 -118 117 0
1 -118 48 0
1 118 178 0
1 118 -179 0
1 118 177 0
1 118 180 0
1 -118 183 0
1 -118 -174 0
1 120 -121 0
1 -120 -178 0
1 -120 -179 0
1 -120 177 0
1 -120 183 0
1 120 -174 0
1 121 -178 0
1 -121 179 0
1 121 177 0
1 -121 -180 0
1 138 136 0
1 138 -184 0
1 138 185 0
1 -138 -129 0
1 -138 -139 0
1 -138 133 0
1 -138 -132 0
1 138 130 0
1 -138 -134 0
1 -136 -78 0
1 136 185 0
1 -136 -128 0
1 136 -129 0
1 136 139 0
1 136 -132 0
1 -136 -130 0
1 136 131 0
1 146 185 0
1 146 186 0
1 -146 -187 0
1 -146 92 0
1 -146 132 0
1 146 137 0
1 -146 -134 0
1 -147 186 0
1 -147 187 0
1 147 146 0
1 147 132 0
1 147 188 0
1 -147 -134 0
1 -147 94 0
1 -132 185 0
1 132 155 0
1 132 -142 0
1 -132 -146 0
1 132 138 0
1 132 -143 0
1 -132 147 0
1 185 136 0
1 -185 127 0
1 185 189 0
1 185 -138 0
1 -185 132 0
1 133 136 0
1 -133 184 0
1 -133 -146 0
1 -133 -124 0
1 133 190 0
1 -133 -147 0
1 184 -136 0
1 184 -146 0
1 184 138 0
1 -184 -133 0
1 184 -147 0
1 -142 140 0
1 142 186 0
1 -142 86 0
1 -142 -135 0
1 142 132 0
1 -142 188 0
1 -142 143 0
1 -142 -134 0
1 143 -140 0
1 -143 134 0
1 -143 -67 0
1 -143 185 0
1 143 186 0
1 -143 -187 0
1 -143 139 0
1 -143 -142 0
1 143 -135 0
1 143 132 0
1 143 188 0
1 -143 -137 0
1 -155 -141 0
1 -155 -67 0
1 -155 -186 0
1 -155 -100 0
1 155 187 0
1 -155 -148 0
1 155 -144 0
1 155 72 0
1 155 -188 0
1 155 -132 0
1 155 153 0
1 -155 -137 0
1 -153 67 0
1 -153 -185 0
1 153 -186 0
1 -153 -155 0
1 -153 148 0
1 -153 -72 0
1 -153 132 0
1 -153 102 0
1 153 188 0
1 -153 137 0
1 -153 -145 0
1 137 -191 0
1 -137 -160 0
1 137 155 0
1 137 -187 0
1 -137 -146 0
1 137 192 0
1 137 -152 0
1 137 -143 0
1 137 147 0
1 187 191 0
1 187 129 0
1 -187 -155 0
1 -187 -193 0
1 187 -142 0
1 -187 146 0
1 187 192 0
1 187 164 0
1 -187 -152 0
1 -187 137 0
1 -187 147 0
1 188 -186 0
1 188 -142 0
1 -188 -130 0
1 188 -192 0
1 -188 153 0
1 -188 194 0
1 -188 -147 0
1 -186 191 0
1 186 -128 0
1 186 -195 0
1 186 142 0
1 186 -188 0
1 186 -153 0
1 -186 -143 0
1 186 147 0
1 -150 -141 0
1 150 -82 0
1 -150 98 0
1 -150 -187 0
1 -150 148 0
1 -150 -144 0
1 -150 72 0
1 150 -66 0
1 -150 -84 0
1 -150 -152 0
1 -152 -67 0
1 152 -64 0
1 152 82 0
1 152 150 0
1 152 -187 0
1 -152 -148 0
1 -152 -144 0
1 -152 -72 0
1 152 66 0
1 152 -137 0
1 152 -145 0
1 -160 -141 0
1 -160 196 0
1 160 -197 0
1 -160 -82 0
1 -160 -111 0
1 160 187 0
1 160 -148 0
1 160 -144 0
1 160 154 0
1 160 -84 0
1 160 -137 0
1 -160 145 0
1 -164 141 0
1 -164 196 0
1 164 197 0
1 -164 -82 0
1 164 160 0
1 164 144 0
1 -164 -154 0
1 164 84 0
1 164 -114 0
1 164 -137 0
1 -164 145 0
1 -141 140 0
1 141 -167 0
1 141 150 0
1 -141 155 0
1 -141 -144 0
1 -141 198 0
1 -141 -170 0
1 -141 164 0
1 -141 152 0
1 141 -153 0
1 144 167 0
1 -144 156 0
1 144 -160 0
1 -144 -155 0
1 144 135 0
1 -144 -198 0
1 144 170 0
1 -144 158 0
1 144 164 0
1 144 152 0
1 -144 153 0
1 -145 199 0
1 145 -200 0
1 145 -201 0
1 145 191 0
1 -145 -160 0
1 145 150 0
1 -145 155 0
1 -145 -198 0
1 145 -202 0
1 -145 192 0
1 -145 152 0
1 -148 -200 0
1 148 -201 0
1 -148 191 0
1 -148 160 0
1 -148 150 0
1 148 155 0
1 148 139 0
1 148 203 0
1 -148 -198 0
1 148 202 0
1 -148 192 0
1 148 164 0
1 148 -152 0
1 -148 153 0
1 -148 -145 0
1 -156 104 0
1 -156 191 0
1 -156 -82 0
1 156 -197 0
1 -156 -79 0
1 156 144 0
1 156 154 0
1 -156 -84 0
1 156 149 0
1 -156 -93 0
1 -158 141 0
1 158 -197 0
1 -158 -91 0
1 158 -144 0
1 158 -107 0
1 -158 192 0
1 158 -84 0
1 158 149 0
1 -158 -93 0
1 -167 -119 0
1 -167 201 0
1 167 -196 0
1 -167 161 0
1 167 170 0
1 167 154 0
1 -167 151 0
1 167 -162 0
1 167 -159 0
1 -170 141 0
1 170 167 0
1 -170 196 0
1 -170 161 0
1 170 -157 0
1 -170 91 0
1 -170 144 0
1 170 -122 0
1 170 151 0
1 170 -162 0
1 -170 -159 0
1 170 93 0
1 197 -166 0
1 -197 -167 0
1 -197 156 0
1 197 -64 0
1 197 -160 0
1 197 175 0
1 -197 -169 0
1 -197 -170 0
1 -197 151 0
1 197 -164 0
1 -197 -176 0
1 151 166 0
1 151 -156 0
1 -151 175 0
1 -151 -169 0
1 151 -170 0
1 -151 158 0
1 196 -204 0
1 196 200 0
1 -196 -167 0
1 -196 -160 0
1 196 -205 0
1 196 206 0
1 196 198 0
1 196 -170 0
1 196 154 0
1 -196 164 0
1 154 204 0
1 154 -200 0
1 154 156 0
1 -154 205 0
1 -154 -206 0
1 -154 198 0
1 -154 -170 0
1 -154 72 0
1 -154 -158 0
1 166 -115 0
1 -166 -200 0
1 166 -91 0
1 -166 87 0
1 -166 169 0
1 -166 101 0
1 166 151 0
1 -166 162 0
1 166 159 0
1 -166 -89 0
1 -166 -103 0
1 -169 166 0
1 169 157 0
1 -169 87 0
1 169 -116 0
1 169 101 0
1 -169 198 0
1 -169 -151 0
1 -169 159 0
1 -169 -93 0
1 -169 103 0
1 176 204 0
1 -176 -161 0
1 -176 157 0
1 176 168 0
1 -176 -175 0
1 176 -207 0
1 176 101 0
1 -176 -151 0
1 -176 -162 0
1 -176 159 0
1 176 -208 0
1 176 165 0
1 176 174 0
1 -176 103 0
1 -175 157 0
1 175 -176 0
1 -175 -177 0
1 -175 -207 0
1 175 206 0
1 175 -151 0
1 -175 162 0
1 -175 -208 0
1 -157 -166 0
1 157 167 0
1 157 159 0
1 157 -79 0
1 -157 181 0
1 157 -172 0
1 157 -175 0
1 -157 -169 0
1 -157 -170 0
1 157 -182 0
1 -157 176 0
1 -159 -166 0
1 159 -167 0
1 159 -181 0
1 -159 175 0
1 159 169 0
1 159 -149 0
1 -159 -176 0
1 161 205 0
1 -161 -162 0
1 -161 -209 0
1 162 166 0
1 162 -167 0
1 -162 -161 0
1 162 175 0
1 -162 169 0
1 162 84 0
1 -162 209 0
1 -162 -176 0
1 -173 -113 0
1 -173 -172 0
1 173 -168 0
1 -173 -101 0
1 173 163 0
1 -173 112 0
1 173 159 0
1 -173 165 0
1 172 97 0
1 -172 157 0
1 172 179 0
1 -172 168 0
1 -172 -101 0
1 -172 -163 0
1 -172 112 0
1 172 159 0
1 -172 -208 0
1 -172 -103 0
1 182 113 0
1 182 -157 0
1 -182 168 0
1 182 -207 0
1 182 -159 0
1 -182 180 0
1 182 -209 0
1 182 165 0
1 -181 -113 0
1 181 -178 0
1 181 157 0
1 181 -210 0
1 181 207 0
1 -181 112 0
1 -181 -159 0
1 -181 -182 0
1 181 165 0
1 207 181 0
1 207 175 0
1 -207 165 0
1 -207 -182 0
1 165 172 0
1 -165 -175 0
1 -165 -207 0
1 165 -182 0
1 165 173 0
1 -165 -176 0
1 168 -181 0
1 -168 -91 0
1 168 175 0
1 -168 208 0
1 -168 173 0
1 208 -181 0
1 -208 -172 0
1 -208 -175 0
1 208 182 0
1 208 -173 0
1 -208 -176 0
1 -191 -156 0
1 -191 -189 0
1 191 -186 0
1 -191 -187 0
1 -191 148 0
1 -191 -190 0
1 -192 191 0
1 192 211 0
1 -192 189 0
1 -192 -187 0
1 -192 -148 0
1 -192 -158 0
1 -192 212 0
1 -192 -188 0
1 -192 -137 0
1 201 189 0
1 201 -195 0
1 -201 -148 0
1 201 -212 0
1 -201 194 0
1 -201 213 0
1 -201 -145 0
1 202 211 0
1 202 189 0
1 202 -195 0
1 -202 148 0
1 202 -170 0
1 -202 -190 0
1 202 212 0
1 202 -194 0
1 202 213 0
1 -202 -145 0
1 -212 204 0
1 212 200 0
1 212 201 0
1 -212 191 0
1 -212 -189 0
1 -212 198 0
1 212 192 0
1 212 -132 0
1 -189 204 0
1 189 -200 0
1 189 -201 0
1 189 -191 0
1 -189 202 0
1 189 192 0
1 -189 -212 0
1 -190 191 0
1 -190 -211 0
1 190 202 0
1 -190 -192 0
1 211 201 0
1 211 -191 0
1 211 -190 0
1 211 184 0
1 211 -202 0
1 200 166 0
1 -200 -141 0
1 -200 -196 0
1 200 193 0
1 200 148 0
1 200 144 0
1 200 154 0
1 200 -212 0
1 -200 194 0
1 198 141 0
1 198 -189 0
1 198 195 0
1 198 -193 0
1 -198 -148 0
1 198 -169 0
1 198 212 0
1 204 -199 0
1 204 -214 0
1 204 196 0
1 -204 193 0
1 -204 -206 0
1 204 203 0
1 -204 -154 0
1 204 -194 0
1 -204 -213 0
1 204 -176 0
1 -206 204 0
1 206 -199 0
1 206 196 0
1 -206 -189 0
1 206 -195 0
1 206 -193 0
1 -206 203 0
1 -206 215 0
1 -206 -154 0
1 -206 212 0
1 206 213 0
1 -213 204 0
1 213 -201 0
1 213 -193 0
1 213 206 0
1 -213 -198 0
1 213 -202 0
1 -213 -209 0
1 213 -137 0
1 193 -204 0
1 -193 -200 0
1 193 201 0
1 -193 -210 0
1 -193 -187 0
1 -193 -206 0
1 193 -198 0
1 193 209 0
1 194 204 0
1 194 200 0
1 194 201 0
1 194 198 0
1 -194 -188 0
1 -195 204 0
1 -195 200 0
1 -195 -201 0
1 -195 -206 0
1 195 202 0
1 -205 214 0
1 205 197 0
1 -205 -161 0
1 205 193 0
1 -205 -203 0
1 205 -215 0
1 205 -154 0
1 205 151 0
1 205 -213 0
1 -209 -161 0
1 209 210 0
1 -209 193 0
1 209 162 0
1 -210 -199 0
1 -210 214 0
1 -210 161 0
1 -210 181 0
1 -210 -193 0
1 -210 -162 0
1 -210 209 0
1 -210 213 0
1 -214 -204 0
1 214 -141 0
1 -214 210 0
1 214 -209 0
1 215 -214 0
1 215 -210 0
1 -215 -206 0
1 -215 -144 0
1 -215 -209 0
1 -199 -210 0
1 -199 -205 0
1 -199 -203 0
1 -199 -145 0
1 -203 204 0
1 203 -210 0
1 203 205 0
1 203 -148 0
1 -203 -206 0
1 -203 -209 0
